(set-logic QF_SLIA)
(declare-fun var0 () String)
(assert (str.in_re var0 (re.++ ((_ re.loop 7 789) (re.++ (re.union (str.to_re "2t") (re.union (str.to_re "wwd") (re.union (str.to_re "y.") (str.to_re "2")))) (re.++ (re.union (str.to_re "im,") (re.union (str.to_re "\u0022N!") (re.union (str.to_re "<O") (str.to_re "O#z")))) (re.++ (re.union (str.to_re "||.") (re.union (str.to_re "z\u0022?") (re.union (str.to_re "$K8") (str.to_re "k+W")))) (re.union (str.to_re "(t") (re.union (str.to_re "^#.") (re.union (str.to_re "J=z") (str.to_re "XB")))))))) (re.++ ((_ re.loop 10 126) (re.++ (re.union (str.to_re "c:O") (re.union (str.to_re "[F") (re.union (str.to_re "!/") (str.to_re "e|")))) (re.++ (re.union (str.to_re "<-") (re.union (str.to_re "M\\Y") (re.union (str.to_re "r+") (str.to_re "5t")))) (re.++ (re.union (str.to_re "<4") (re.union (str.to_re "Sk^") (re.union (str.to_re "/Y") (str.to_re "h`:")))) (re.union (str.to_re "{F") (re.union (str.to_re "s") (re.union (str.to_re "b") (str.to_re "=")))))))) (re.++ ((_ re.loop 2 872) (re.++ (re.union (str.to_re "Cc") (re.union (str.to_re "TkO") (re.union (str.to_re ";Q") (str.to_re "\u0022M")))) (re.++ (re.union (str.to_re "i") (re.union (str.to_re "Xi") (re.union (str.to_re "'LL") (str.to_re "+c+")))) (re.++ (re.union (str.to_re "JT/") (re.union (str.to_re "<u5") (re.union (str.to_re ">rN") (str.to_re ":o")))) (re.union (str.to_re "#>") (re.union (str.to_re "b") (re.union (str.to_re "[") (str.to_re "r")))))))) ((_ re.loop 19 180) (re.++ (re.union (str.to_re "U\u0022") (re.union (str.to_re "-?f") (re.union (str.to_re ":") (str.to_re "2K^")))) (re.++ (re.union (str.to_re "^YA") (re.union (str.to_re "&!") (re.union (str.to_re ":V") (str.to_re "?")))) (re.++ (re.union (str.to_re "pus") (re.union (str.to_re "vwS") (re.union (str.to_re "a") (str.to_re "Z")))) (re.union (str.to_re "9") (re.union (str.to_re "KY") (re.union (str.to_re "e") (str.to_re "[")))))))))))))
(assert (not (str.in_re var0 (re.++ ((_ re.loop 18 349) (re.++ (re.union (str.to_re "1") (re.union (str.to_re "q") (re.union (str.to_re "-B") (str.to_re "sv$")))) (re.++ (re.union (str.to_re "Q)O") (re.union (str.to_re "Ilg") (re.union (str.to_re "?%(") (str.to_re "9")))) (re.++ (re.union (str.to_re ",bI") (re.union (str.to_re "Y") (re.union (str.to_re "QOW") (str.to_re ",[")))) (re.union (str.to_re "ZxM") (re.union (str.to_re "H(Q") (re.union (str.to_re "f[y") (str.to_re "HI")))))))) (re.++ ((_ re.loop 0 816) (re.++ (re.union (str.to_re "dU") (re.union (str.to_re "wk") (re.union (str.to_re "r") (str.to_re "[")))) (re.++ (re.union (str.to_re "'") (re.union (str.to_re "a/") (re.union (str.to_re "Vd") (str.to_re "|")))) (re.++ (re.union (str.to_re "gy") (re.union (str.to_re "`*`") (re.union (str.to_re "L+") (str.to_re "V8g")))) (re.union (str.to_re "5de") (re.union (str.to_re "8") (re.union (str.to_re "k@") (str.to_re "Y")))))))) (re.++ ((_ re.loop 7 523) (re.++ (re.union (str.to_re "SvH") (re.union (str.to_re "eK(") (re.union (str.to_re "'m") (str.to_re "r")))) (re.++ (re.union (str.to_re "P") (re.union (str.to_re "N") (re.union (str.to_re "&$") (str.to_re "E")))) (re.++ (re.union (str.to_re "~") (re.union (str.to_re "N,^") (re.union (str.to_re "Lp") (str.to_re "s")))) (re.union (str.to_re "27|") (re.union (str.to_re "{:/") (re.union (str.to_re "n") (str.to_re "(")))))))) ((_ re.loop 10 393) (re.++ (re.union (str.to_re "P") (re.union (str.to_re "#") (re.union (str.to_re "Q") (str.to_re "TY")))) (re.++ (re.union (str.to_re "\u0022RW") (re.union (str.to_re "R1") (re.union (str.to_re ";l") (str.to_re "K]")))) (re.++ (re.union (str.to_re "51(") (re.union (str.to_re "U") (re.union (str.to_re "6") (str.to_re "WT{")))) (re.union (str.to_re "C*m") (re.union (str.to_re "T") (re.union (str.to_re "1") (str.to_re ">5"))))))))))))))
(assert (not (str.in_re var0 (re.++ (re.* re.allchar) (re.++ (re.union (str.to_re "<") (re.union (str.to_re ">") (re.union (str.to_re "'") (re.union (str.to_re "\u0022") (str.to_re "&"))))) (re.* re.allchar))))))
(assert (<= 50 (str.len var0)))
(check-sat)
(get-model)
